flute-3.1/tmp/problem.lp
Minimize
13.000000 A_0_0 + 126.000000 A_1_0 + 126.000000 A_1_1
Subject To
538364169.014988 Y_0_0_1_0 + 538356639.014988 Y_0_0_1_1 + 538364169.014988 Y_1_0_0_0 + 538356639.014988 Y_1_1_0_0 + 4201594754.772924 A_0_0 + 17245594.531675 A_1_0 + 17245369.531675 A_1_1 + -8403189509.545848 A_0_0 + -538364169.014988 A_1_0 + -538356639.014988 A_1_1 <= -1512433083.168777
A_0_0 <= 1
A_1_0 + A_1_1 <= 1
Y_0_0_1_0 - A_0_0 <= 0
Y_0_0_1_0 - A_1_0 <= 0
Y_0_0_1_0 - A_0_0 - A_1_0 >= -1
Y_0_0_1_1 - A_0_0 <= 0
Y_0_0_1_1 - A_1_1 <= 0
Y_0_0_1_1 - A_0_0 - A_1_1 >= -1
Y_1_0_0_0 - A_1_0 <= 0
Y_1_0_0_0 - A_0_0 <= 0
Y_1_0_0_0 - A_1_0 - A_0_0 >= -1
Y_1_1_0_0 - A_1_1 <= 0
Y_1_1_0_0 - A_0_0 <= 0
Y_1_1_0_0 - A_1_1 - A_0_0 >= -1
Binaries
A_0_0
A_1_0
A_1_1
Y_0_0_1_0
Y_0_0_1_1
Y_1_0_0_0
Y_1_1_0_0
