flute-3.1/tmp/problem.sol
# Objective value = 13
A_0_0 1
A_1_0 0
A_1_1 0
Y_0_0_1_0 0
Y_0_0_1_1 0
Y_1_0_0_0 0
Y_1_1_0_0 0
